7914
40, 39, 36, 35, 34, 44, 16, 29, 50, 20, 23, 30, 2, 7, 42, 21, 17, 3, 18, 31, 22, 1, 49, 32, 45, 19, 41, 8, 9, 10, 33, 43, 4, 28, 27, 26, 47, 13, 14, 52, 11, 51, 12, 25, 46, 48, 24, 5, 6, 15, 38, 37
